
===== New CPLEX run =====
Instance: /home/yorig/tuner/mpils-tests/instances/miplib/medium-1/momentum1.mps
Config: /scratch/yorig/mpils-results-grid-ticks-10000/medium-1/16proc/seed-5/6_momentum1_seed-5_20260425_215516/expansion/config_param_CPXPARAM_Preprocessing_Fill_2_iter_3.prm
========================

Selected objective sense:  MINIMIZE
Selected objective  name:  MINIMIZE
Selected RHS        name:  rhs
Selected bound      name:  bnd
Version identifier: 22.1.2.0 | 2024-11-26 | 0edbb82fd
CPXPARAM_Threads                                 8
CPXPARAM_Parallel                                1
CPXPARAM_MIP_Cuts_Cliques                        -1
CPXPARAM_MIP_Cuts_FlowCovers                     2
CPXPARAM_MIP_Cuts_Implied                        1
CPXPARAM_MIP_Limits_GomoryCand                   25
CPXPARAM_MIP_Cuts_Gomory                         1
CPXPARAM_MIP_Cuts_PathCut                        1
CPXPARAM_MIP_Cuts_Disjunctive                    -1
CPXPARAM_Emphasis_MIP                            4
CPXPARAM_Preprocessing_Fill                      2
CPXPARAM_MIP_Strategy_HeuristicFreq              100
CPXPARAM_DetTimeLimit                            10000
Tried aggregator 3 times.
MIP Presolve eliminated 30810 rows and 1362 columns.
MIP Presolve modified 22243 coefficients.
Aggregator did 224 substitutions.
Reduced MIP has 11646 rows, 3588 columns, and 46656 nonzeros.
Reduced MIP has 1625 binaries, 0 generals, 0 SOSs, and 0 indicators.
Presolve time = 0.10 sec. (137.77 ticks)
Found incumbent of value 533875.101733 after 0.12 sec. (152.92 ticks)
Probing fixed 391 vars, tightened 1082 bounds.
Probing changed sense of 115 constraints.
Probing time = 0.08 sec. (88.95 ticks)
Cover probing fixed 0 vars, tightened 276 bounds.
Tried aggregator 2 times.
MIP Presolve eliminated 3287 rows and 844 columns.
MIP Presolve modified 7059 coefficients.
Aggregator did 6 substitutions.
Reduced MIP has 8353 rows, 2738 columns, and 31375 nonzeros.
Reduced MIP has 1169 binaries, 0 generals, 0 SOSs, and 0 indicators.
Presolve time = 0.04 sec. (44.26 ticks)
Probing fixed 2 vars, tightened 252 bounds.
Probing time = 0.04 sec. (43.58 ticks)
Cover probing fixed 0 vars, tightened 194 bounds.
Tried aggregator 1 time.
Detecting symmetries...
MIP Presolve eliminated 33 rows and 4 columns.
MIP Presolve modified 4951 coefficients.
Reduced MIP has 8320 rows, 2734 columns, and 31291 nonzeros.
Reduced MIP has 1167 binaries, 0 generals, 0 SOSs, and 0 indicators.
Presolve time = 0.02 sec. (21.97 ticks)
Probing fixed 0 vars, tightened 90 bounds.
Probing time = 0.04 sec. (40.52 ticks)
Cover probing fixed 0 vars, tightened 60 bounds.
Clique table members: 18726.
MIP emphasis: hidden feasible solutions.
MIP search method: dynamic search.
Parallel mode: deterministic, using up to 8 threads.
Root relaxation solution time = 0.12 sec. (153.17 ticks)

        Nodes                                         Cuts/
   Node  Left     Objective  IInf  Best Integer    Best Bound    ItCnt     Gap

*     0+    0                       533875.1017    44880.8651            91.59%
*     0+    0                       533848.2317    44880.8651            91.59%
*     0+    0                       320980.1333    44880.8651            86.02%
*     0+    0                       320962.3354    44880.8651            86.02%
      0     0    79213.0345   216   320962.3354    79213.0345     1545   75.32%
*     0+    0                       314550.6820    79213.0345            74.82%
      0     0    93067.6133   271   314550.6820     Cuts: 157     2065   70.41%
      0     0    96258.9835   308   314550.6820      Cuts: 52     2737   69.40%
      0     0    96260.2673   301   314550.6820      Cuts: 59     2862   69.40%
      0     0    96261.5903   291   314550.6820      Cuts: 34     2975   69.40%
      0     0    96272.8554   273   314550.6820      Cuts: 43     3135   69.39%
Detecting symmetries...
      0     0    96277.1235   288   314550.6820      Cuts: 45     3206   69.39%
      0     0    96281.5786   306   314550.6820      Cuts: 19     3410   69.39%
Detecting symmetries...
      0     2    96281.5786   306   314550.6820    96281.5786     3410   69.39%
Elapsed time = 3.73 sec. (6028.35 ticks, tree = 0.02 MB, solutions = 5)
     10    10    96309.1358   276   314550.6820    96290.4857     4409   69.39%
     46    34    96326.7021   185   314550.6820    96294.2344     7206   69.39%
     74    67   102746.4419   153   314550.6820    96294.2344    11170   69.39%
     95    82   107014.2209   133   314550.6820    96294.2344    17344   69.39%
    117   101   109131.9004   199   314550.6820    96294.2344    22662   69.39%
    133    86    97827.7911   215   314550.6820    96294.2344    18796   69.39%
    170   137    96504.1962   272   314550.6820    96294.2344    31802   69.39%
    187   147    97550.7441   289   314550.6820    96294.2344    35179   69.39%
    202   169   109135.6420   177   314550.6820    96294.2344    38770   69.39%
    397   288   134892.0644    87   314550.6820    96294.2344    62010   69.39%
Elapsed time = 5.72 sec. (9221.61 ticks, tree = 0.59 MB, solutions = 5)

Implied bound cuts applied:  6
Flow cuts applied:  117
Flow path cuts applied:  0
Zero-half cuts applied:  38
Gomory fractional cuts applied:  4

Root node processing (before b&c):
  Real time             =    3.69 sec. (5983.55 ticks)
Parallel b&c, 8 threads:
  Real time             =    2.56 sec. (4022.71 ticks)
  Sync time (average)   =    0.31 sec.
  Wait time (average)   =    0.00 sec.
                          ------------
Total (root+branch&cut) =    6.26 sec. (10006.26 ticks)
Gap: 69.39%
Upper bound: 314551
Lower bound: 96294.2
End of CPLEX run. Time: 6.26129 seconds

===== New CPLEX run =====
Instance: /home/yorig/tuner/mpils-tests/instances/miplib/medium-1/momentum1.mps
Config: /scratch/yorig/mpils-results-grid-ticks-10000/medium-1/16proc/seed-5/6_momentum1_seed-5_20260425_215516/expansion/config_param_CPXPARAM_Preprocessing_Fill_5_iter_3.prm
========================

Selected objective sense:  MINIMIZE
Selected objective  name:  MINIMIZE
Selected RHS        name:  rhs
Selected bound      name:  bnd
Version identifier: 22.1.2.0 | 2024-11-26 | 0edbb82fd
CPXPARAM_Threads                                 8
CPXPARAM_Parallel                                1
CPXPARAM_MIP_Cuts_Cliques                        -1
CPXPARAM_MIP_Cuts_FlowCovers                     2
CPXPARAM_MIP_Cuts_Implied                        1
CPXPARAM_MIP_Limits_GomoryCand                   25
CPXPARAM_MIP_Cuts_Gomory                         1
CPXPARAM_MIP_Cuts_PathCut                        1
CPXPARAM_MIP_Cuts_Disjunctive                    -1
CPXPARAM_Emphasis_MIP                            4
CPXPARAM_Preprocessing_Fill                      5
CPXPARAM_MIP_Strategy_HeuristicFreq              100
CPXPARAM_DetTimeLimit                            10000
Tried aggregator 3 times.
MIP Presolve eliminated 30810 rows and 1362 columns.
MIP Presolve modified 22258 coefficients.
Aggregator did 226 substitutions.
Reduced MIP has 11644 rows, 3586 columns, and 46658 nonzeros.
Reduced MIP has 1625 binaries, 0 generals, 0 SOSs, and 0 indicators.
Presolve time = 0.10 sec. (137.80 ticks)
Found incumbent of value 533875.101733 after 0.12 sec. (152.94 ticks)
Probing fixed 392 vars, tightened 1139 bounds.
Probing changed sense of 115 constraints.
Probing time = 0.08 sec. (90.01 ticks)
Cover probing fixed 0 vars, tightened 253 bounds.
Tried aggregator 2 times.
MIP Presolve eliminated 3297 rows and 846 columns.
MIP Presolve modified 7140 coefficients.
Aggregator did 8 substitutions.
Reduced MIP has 8339 rows, 2732 columns, and 31353 nonzeros.
Reduced MIP has 1168 binaries, 0 generals, 0 SOSs, and 0 indicators.
Presolve time = 0.04 sec. (44.27 ticks)
Probing fixed 1 vars, tightened 261 bounds.
Probing time = 0.04 sec. (43.75 ticks)
Cover probing fixed 0 vars, tightened 181 bounds.
Tried aggregator 1 time.
Detecting symmetries...
MIP Presolve eliminated 23 rows and 2 columns.
MIP Presolve modified 4950 coefficients.
Reduced MIP has 8316 rows, 2730 columns, and 31296 nonzeros.
Reduced MIP has 1167 binaries, 0 generals, 0 SOSs, and 0 indicators.
Presolve time = 0.02 sec. (21.96 ticks)
Probing fixed 0 vars, tightened 86 bounds.
Probing time = 0.04 sec. (40.71 ticks)
Cover probing fixed 0 vars, tightened 66 bounds.
Clique table members: 18696.
MIP emphasis: hidden feasible solutions.
MIP search method: dynamic search.
Parallel mode: deterministic, using up to 8 threads.
Root relaxation solution time = 0.12 sec. (148.66 ticks)

        Nodes                                         Cuts/
   Node  Left     Objective  IInf  Best Integer    Best Bound    ItCnt     Gap

*     0+    0                       533875.1017    44880.8651            91.59%
*     0+    0                       533848.2317    44880.8651            91.59%
*     0+    0                       320980.1333    44880.8651            86.02%
*     0+    0                       320962.3354    44880.8651            86.02%
      0     0    79213.0345   216   320962.3354    79213.0345     1536   75.32%
*     0+    0                       314550.6820    79213.0345            74.82%
      0     0    96254.6343   294   314550.6820     Cuts: 163     2057   69.40%
      0     0    96259.3631   304   314550.6820      Cuts: 74     2235   69.40%
      0     0    96260.9590   292   314550.6820      Cuts: 34     2365   69.40%
      0     0    96261.5744   296   314550.6820      Cuts: 44     2414   69.40%
      0     0    96273.2379   285   314550.6820      Cuts: 32     2560   69.39%
Detecting symmetries...
      0     0    96276.3666   287   314550.6820      Cuts: 42     2675   69.39%
Detecting symmetries...
      0     2    96276.3666   287   314550.6820    96276.3666     2675   69.39%
Elapsed time = 3.31 sec. (5456.02 ticks, tree = 0.02 MB, solutions = 5)
     18    10    96303.2052   234   314550.6820    96286.9128     3923   69.39%
     92    79   102801.3056   228   314550.6820    96286.9128    10675   69.39%
    108    97    96470.7345   244   314550.6820    96286.9128    13408   69.39%
    132   128   112359.9598   146   314550.6820    96286.9128    19281   69.39%
    173   145   109255.1464   213   314550.6820    96286.9128    22164   69.39%
    205   111   113920.8541   214   314550.6820    96286.9128    18086   69.39%
    260   201   115514.8598   145   314550.6820    96286.9128    30813   69.39%
    283   255   102764.5277   182   314550.6820    96286.9128    39358   69.39%
    345   279   115569.4624   227   314550.6820    96286.9128    43030   69.39%
    513   432   122158.5334   148   314550.6820    96286.9128    61007   69.39%
Elapsed time = 5.40 sec. (8644.27 ticks, tree = 0.97 MB, solutions = 5)
    596   501   147783.7040    52   314550.6820    96286.9128    78601   69.39%

Implied bound cuts applied:  10
Flow cuts applied:  120
Flow path cuts applied:  0
Zero-half cuts applied:  33
Gomory fractional cuts applied:  4

Root node processing (before b&c):
  Real time             =    3.28 sec. (5424.56 ticks)
Parallel b&c, 8 threads:
  Real time             =    3.11 sec. (4581.71 ticks)
  Sync time (average)   =    0.43 sec.
  Wait time (average)   =    0.00 sec.
                          ------------
Total (root+branch&cut) =    6.39 sec. (10006.27 ticks)
Gap: 69.39%
Upper bound: 314551
Lower bound: 96286.9
End of CPLEX run. Time: 6.39356 seconds
